outputs/r203.txt.out
filename: R203
Vehicles: 25, Capacity: 1000
Total customers : 101
No of routes: 19
Route #1: 53 58
Route #2: 13 97 95 94
Route #3: 92 37 100 98 59
Route #4: 96 99 5 60 83 8 46
Route #5: 45 82 48 47 36 49
Route #6: 7 19 64 11 62 88 31 10 63 90 32 70
Route #7: 66 20 30 52 18
Route #8: 84 17 61 16 91 85 93
Route #9: 44 86 38 14 87
Route #10: 2 57 42 43 15 6 89
Route #11: 40 21 72 75 74 73
Route #12: 56 4
Route #13: 39 67 23 41 22 80 12 26
Route #14: 68 77
Route #15: 76 50 1
Route #16: 69 34 78 79 3
Route #17: 33 81 51 9 71 35
Route #18: 65 29 24 54 55 25 28
Route #19: 27
Cost 1461
